n_potions = 66;
alchemy = [5, 5, 2, 4, 4, 3, 2, 1, 3, 1, 4, 4, 1, 2, 3, 4, 1, 3, 2, 5, 1, 2, 4, 5, 5, 3, 4, 2, 1, 1, 2, 4, 4, 2, 4, 1, 4, 1, 1, 4, 5, 4, 5, 4, 4, 3, 4, 3, 4, 4, 5, 5, 4, 4, 4, 1, 4, 2, 5, 4, 5, 5, 3, 2, 1, 3];
n_days = 12;
min_potions = 5;
max_potions = 7;
min_alchemists = 5;
max_alchemists = 35;
prereqs = [|8,2
|8,6
|12,7
|13,11
|14,3
|16,9
|17,10
|17,11
|18,10
|18,11
|19,11
|20,9
|21,10
|24,13
|24,19
|26,13
|26,23
|30,9
|32,9
|33,27
|35,9
|35,17
|37,20
|37,35
|38,33
|39,35
|41,9
|41,17
|41,18
|43,20
|44,16
|45,38
|47,42
|48,34
|49,30
|49,32
|50,43
|51,33
|54,50
|55,43
|56,51
|57,39
|57,34
|58,28
|59,55
|61,48
|61,55
|62,31
|63,48
|65,59
|];
